============================[ Problem Statistics ]=============================|                                                                             ||  Number of variables:          4242                                         ||  Number of clauses:            9768                                         ||  Parse time:                   0.17 s                                       ||                                                                             |============================[ Search Statistics ]==============================| Conflicts |          ORIGINAL         |          LEARNT          | Progress ||           |    Vars  Clauses Literals |    Limit  Clauses Lit/Cl |          |===============================================================================|       100 |    1591     5973   250444 |     2190      100     53 | 62.501 % |===============================================================================restarts              : 2conflicts             : 102            (338 /sec)decisions             : 274            (0.00 % random) (907 /sec)propagations          : 9853           (32626 /sec)conflict literals     : 5439           (95.97 % deleted)CPU time              : 0.302 sSATISFIABLE